Maximize
  - 3.7574512512798 edge_0_1_0_0 - 2.43986 edge_0_2_0_0
   - 2.86719 edge_0_3_0_0 - 2.8434296587884 edge_0_4_0_0
   - 3.901641157722 edge_0_5_0_0 - 2.4673711009136 edge_0_6_0_0
   - 2.0593835140022 edge_0_7_0_0 - 2.0439960145384 edge_0_8_0_0
   - 1.221614068836 edge_0_9_0_0 - 3.088797369876 edge_0_11_0_0
   - 2.9684798218912 edge_0_15_0_0 - 0.23662749529437 edge_1_2_0_0
   - 0.21964285935405 edge_1_3_0_0 - 0.836531167476028 edge_1_4_0_0
   - 0.3763779106216505 edge_1_5_0_0 - 0.9992076475028081 edge_1_9_0_0
   + 0.63945236952828 edge_2_1_0_0 + 1.41426 edge_2_3_0_0
   + 1.2396698512396 edge_2_4_0_0 + 1.7525686500256 edge_2_5_0_0
   + 0.23950274448111 edge_2_6_0_0 + 0.070443163630145 edge_2_7_0_0
   - 0.26575743124632 edge_2_8_0_0 + 0.62556406765216 edge_2_9_0_0
   - 0.40374423796956 edge_2_10_0_0 - 0.3652324996941 edge_2_11_0_0
   - 1.0446506342386 edge_2_13_0_0 - 0.58747296475162 edge_2_15_0_0
   + 1.2649593169216 edge_2_16_0_0 + 0.22614691238082 edge_3_1_0_0
   + 0.66396 edge_3_2_0_0 - 0.24332409387286 edge_3_5_0_0
   - 0.7269818421866501 edge_3_7_0_0 - 0.31881325228284 edge_3_9_0_0
   + 0.7286446065316999 edge_3_16_0_0 + 0.7888937032806542 edge_4_1_0_0
   + 1.9941197607056 edge_4_2_0_0 + 3.2540196095176 edge_4_3_0_0
   + 2.01617767611405 edge_4_5_0_0 + 0.2893029179600456 edge_4_6_0_0
   + 0.485722657855664 edge_4_7_0_0 - 0.3473416802467134 edge_4_8_0_0
   + 0.8260069285683567 edge_4_9_0_0 - 0.3464256207787905 edge_4_10_0_0
   + 0.1730811076366646 edge_4_11_0_0 + 2.111218606594937 edge_4_16_0_0
   - 1.122090707374781 edge_5_1_0_0 - 1.092555520254 edge_5_2_0_0
   - 0.96008991314841 edge_5_3_0_0 - 0.7660057227130321 edge_5_4_0_0
   - 0.0996922186988197 edge_5_6_0_0 - 0.6483644268541188 edge_6_1_0_0
   - 0.6226705830667499 edge_6_2_0_0 - 0.38875017073641 edge_6_3_0_0
   - 0.2625595096730851 edge_6_4_0_0 + 0.6016453752449038 edge_6_5_0_0
   + 0.31146376623739 edge_6_7_0_0 + 0.1639379496429358 edge_6_8_0_0
   + 0.1556686197816768 edge_6_9_0_0 - 0.6920416268730406 edge_6_10_0_0
   - 0.1102014353211456 edge_6_13_0_0 - 0.6933648517978864 edge_6_15_0_0
   + 0.6691753219549109 edge_6_16_0_0 + 0.0508813555136783 edge_7_1_0_0
   - 0.25463704307432 edge_7_2_0_0 - 0.016444730253117 edge_7_3_0_0
   - 0.180327 edge_7_4_0_0 + 0.4879334895550331 edge_7_5_0_0
   + 0.8048824874311505 edge_7_6_0_0 + 0.5565287692186071 edge_7_8_0_0
   + 1.044959172342644 edge_7_9_0_0 + 0.4280609886015362 edge_7_10_0_0
   + 0.2814422904857318 edge_7_11_0_0 + 0.0586456329566284 edge_7_13_0_0
   + 0.3681889817058198 edge_7_15_0_0 + 1.494696587933007 edge_7_16_0_0
   - 0.5176822268189193 edge_8_1_0_0 - 0.6869516037747999 edge_8_2_0_0
   - 0.5577332960075765 edge_8_4_0_0 + 0.02796050803479 edge_8_6_0_0
   + 0.2579796157413047 edge_8_7_0_0 + 0.3886097963368708 edge_8_9_0_0
   - 0.2462227934009771 edge_8_10_0_0 + 0.0510683870371871 edge_8_11_0_0
   + 0.3741183082997699 edge_8_13_0_0 - 0.1495675503824864 edge_8_15_0_0
   + 0.0462846753872978 edge_8_16_0_0 + 0.303157492482738 edge_9_1_0_0
   - 0.49578145398068 edge_9_2_0_0 - 0.4218808261225601 edge_9_3_0_0
   - 0.5452681206488977 edge_9_4_0_0 + 0.4405470921728474 edge_9_5_0_0
   + 0.5317491886272291 edge_9_6_0_0 + 0.2595126574487412 edge_9_7_0_0
   + 1.475251205892245 edge_9_8_0_0 + 0.3757340423991161 edge_9_10_0_0
   + 1.116786410850464 edge_9_11_0_0 + 0.4201234346717337 edge_9_13_0_0
   + 1.78960456635052 edge_9_15_0_0 + 1.944197262659311 edge_9_16_0_0
   + 1.066000075249534 edge_10_11_0_0 - 0.1392520863855008 edge_10_13_0_0
   + 0.3790116967861669 edge_10_15_0_0 - 0.2588905777025442 edge_11_1_0_0
   - 0.6409725523794 edge_11_2_0_0 - 0.3225311950032 edge_11_3_0_0
   - 1.08932662129179 edge_11_4_0_0 + 0.6164424288746464 edge_11_5_0_0
   + 0.485904311880919 edge_11_6_0_0 + 0.2823850467235832 edge_11_7_0_0
   + 0.8756534578699591 edge_11_8_0_0 + 0.0852271980565861 edge_11_9_0_0
   + 2.353975132750006 edge_11_10_0_0 + 0.770288645102817 edge_11_13_0_0
   + 1.932613156250204 edge_11_15_0_0 + 1.684552210927315 edge_11_16_0_0
   + 0.2231066020087506 edge_13_10_0_0 + 0.0990672395504948 edge_13_11_0_0
   + 1.00751960972512 edge_13_15_0_0 + 0.2600852559002459 edge_13_16_0_0
   - 0.0818149850969406 edge_15_8_0_0 + 0.7134492574844821 edge_15_10_0_0
   + 0.3343647051315165 edge_15_11_0_0 + 2.739467221966557 edge_15_13_0_0
   + 0.8771394737160284 edge_15_16_0_0 - 1.139509731123413 edge_16_13_0_0
   - 1.583599049840051 edge_16_15_0_0
Subject To
 one_parent_1: edge_0_1_0_0 + edge_2_1_0_0 + edge_3_1_0_0 + edge_4_1_0_0
   + edge_5_1_0_0 + edge_6_1_0_0 + edge_7_1_0_0 + edge_8_1_0_0
   + edge_9_1_0_0 + edge_11_1_0_0 = 1
 consume_one_flow_unit_1: flow_0_1_0_0 - flow_1_2_0_0 - flow_1_3_0_0
   - flow_1_4_0_0 - flow_1_5_0_0 - flow_1_9_0_0 + flow_2_1_0_0
   + flow_3_1_0_0 + flow_4_1_0_0 + flow_5_1_0_0 + flow_6_1_0_0
   + flow_7_1_0_0 + flow_8_1_0_0 + flow_9_1_0_0 + flow_11_1_0_0 = 1
 one_parent_2: edge_0_2_0_0 + edge_1_2_0_0 + edge_3_2_0_0 + edge_4_2_0_0
   + edge_5_2_0_0 + edge_6_2_0_0 + edge_7_2_0_0 + edge_8_2_0_0
   + edge_9_2_0_0 + edge_11_2_0_0 = 1
 consume_one_flow_unit_2: flow_0_2_0_0 + flow_1_2_0_0 - flow_2_1_0_0
   - flow_2_3_0_0 - flow_2_4_0_0 - flow_2_5_0_0 - flow_2_6_0_0
   - flow_2_7_0_0 - flow_2_8_0_0 - flow_2_9_0_0 - flow_2_10_0_0
   - flow_2_11_0_0 - flow_2_13_0_0 - flow_2_15_0_0 - flow_2_16_0_0
   + flow_3_2_0_0 + flow_4_2_0_0 + flow_5_2_0_0 + flow_6_2_0_0
   + flow_7_2_0_0 + flow_8_2_0_0 + flow_9_2_0_0 + flow_11_2_0_0 = 1
 one_parent_3: edge_0_3_0_0 + edge_1_3_0_0 + edge_2_3_0_0 + edge_4_3_0_0
   + edge_5_3_0_0 + edge_6_3_0_0 + edge_7_3_0_0 + edge_9_3_0_0
   + edge_11_3_0_0 = 1
 consume_one_flow_unit_3: flow_0_3_0_0 + flow_1_3_0_0 + flow_2_3_0_0
   - flow_3_1_0_0 - flow_3_2_0_0 - flow_3_5_0_0 - flow_3_7_0_0
   - flow_3_9_0_0 - flow_3_16_0_0 + flow_4_3_0_0 + flow_5_3_0_0
   + flow_6_3_0_0 + flow_7_3_0_0 + flow_9_3_0_0 + flow_11_3_0_0 = 1
 one_parent_4: edge_0_4_0_0 + edge_1_4_0_0 + edge_2_4_0_0 + edge_5_4_0_0
   + edge_6_4_0_0 + edge_7_4_0_0 + edge_8_4_0_0 + edge_9_4_0_0
   + edge_11_4_0_0 = 1
 consume_one_flow_unit_4: flow_0_4_0_0 + flow_1_4_0_0 + flow_2_4_0_0
   - flow_4_1_0_0 - flow_4_2_0_0 - flow_4_3_0_0 - flow_4_5_0_0
   - flow_4_6_0_0 - flow_4_7_0_0 - flow_4_8_0_0 - flow_4_9_0_0
   - flow_4_10_0_0 - flow_4_11_0_0 - flow_4_16_0_0 + flow_5_4_0_0
   + flow_6_4_0_0 + flow_7_4_0_0 + flow_8_4_0_0 + flow_9_4_0_0
   + flow_11_4_0_0 = 1
 one_parent_5: edge_0_5_0_0 + edge_1_5_0_0 + edge_2_5_0_0 + edge_3_5_0_0
   + edge_4_5_0_0 + edge_6_5_0_0 + edge_7_5_0_0 + edge_9_5_0_0
   + edge_11_5_0_0 = 1
 consume_one_flow_unit_5: flow_0_5_0_0 + flow_1_5_0_0 + flow_2_5_0_0
   + flow_3_5_0_0 + flow_4_5_0_0 - flow_5_1_0_0 - flow_5_2_0_0
   - flow_5_3_0_0 - flow_5_4_0_0 - flow_5_6_0_0 + flow_6_5_0_0
   + flow_7_5_0_0 + flow_9_5_0_0 + flow_11_5_0_0 = 1
 one_parent_6: edge_0_6_0_0 + edge_2_6_0_0 + edge_4_6_0_0 + edge_5_6_0_0
   + edge_7_6_0_0 + edge_8_6_0_0 + edge_9_6_0_0 + edge_11_6_0_0 = 1
 consume_one_flow_unit_6: flow_0_6_0_0 + flow_2_6_0_0 + flow_4_6_0_0
   + flow_5_6_0_0 - flow_6_1_0_0 - flow_6_2_0_0 - flow_6_3_0_0
   - flow_6_4_0_0 - flow_6_5_0_0 - flow_6_7_0_0 - flow_6_8_0_0
   - flow_6_9_0_0 - flow_6_10_0_0 - flow_6_13_0_0 - flow_6_15_0_0
   - flow_6_16_0_0 + flow_7_6_0_0 + flow_8_6_0_0 + flow_9_6_0_0
   + flow_11_6_0_0 = 1
 one_parent_7: edge_0_7_0_0 + edge_2_7_0_0 + edge_3_7_0_0 + edge_4_7_0_0
   + edge_6_7_0_0 + edge_8_7_0_0 + edge_9_7_0_0 + edge_11_7_0_0 = 1
 consume_one_flow_unit_7: flow_0_7_0_0 + flow_2_7_0_0 + flow_3_7_0_0
   + flow_4_7_0_0 + flow_6_7_0_0 - flow_7_1_0_0 - flow_7_2_0_0
   - flow_7_3_0_0 - flow_7_4_0_0 - flow_7_5_0_0 - flow_7_6_0_0
   - flow_7_8_0_0 - flow_7_9_0_0 - flow_7_10_0_0 - flow_7_11_0_0
   - flow_7_13_0_0 - flow_7_15_0_0 - flow_7_16_0_0 + flow_8_7_0_0
   + flow_9_7_0_0 + flow_11_7_0_0 = 1
 one_parent_8: edge_0_8_0_0 + edge_2_8_0_0 + edge_4_8_0_0 + edge_6_8_0_0
   + edge_7_8_0_0 + edge_9_8_0_0 + edge_11_8_0_0 + edge_15_8_0_0 = 1
 consume_one_flow_unit_8: flow_0_8_0_0 + flow_2_8_0_0 + flow_4_8_0_0
   + flow_6_8_0_0 + flow_7_8_0_0 - flow_8_1_0_0 - flow_8_2_0_0
   - flow_8_4_0_0 - flow_8_6_0_0 - flow_8_7_0_0 - flow_8_9_0_0
   - flow_8_10_0_0 - flow_8_11_0_0 - flow_8_13_0_0 - flow_8_15_0_0
   - flow_8_16_0_0 + flow_9_8_0_0 + flow_11_8_0_0 + flow_15_8_0_0 = 1
 one_parent_9: edge_0_9_0_0 + edge_1_9_0_0 + edge_2_9_0_0 + edge_3_9_0_0
   + edge_4_9_0_0 + edge_6_9_0_0 + edge_7_9_0_0 + edge_8_9_0_0
   + edge_11_9_0_0 = 1
 consume_one_flow_unit_9: flow_0_9_0_0 + flow_1_9_0_0 + flow_2_9_0_0
   + flow_3_9_0_0 + flow_4_9_0_0 + flow_6_9_0_0 + flow_7_9_0_0
   + flow_8_9_0_0 - flow_9_1_0_0 - flow_9_2_0_0 - flow_9_3_0_0
   - flow_9_4_0_0 - flow_9_5_0_0 - flow_9_6_0_0 - flow_9_7_0_0
   - flow_9_8_0_0 - flow_9_10_0_0 - flow_9_11_0_0 - flow_9_13_0_0
   - flow_9_15_0_0 - flow_9_16_0_0 + flow_11_9_0_0 = 1
 one_parent_10: edge_2_10_0_0 + edge_4_10_0_0 + edge_6_10_0_0
   + edge_7_10_0_0 + edge_8_10_0_0 + edge_9_10_0_0 + edge_11_10_0_0
   + edge_13_10_0_0 + edge_15_10_0_0 = 1
 consume_one_flow_unit_10: flow_2_10_0_0 + flow_4_10_0_0 + flow_6_10_0_0
   + flow_7_10_0_0 + flow_8_10_0_0 + flow_9_10_0_0 - flow_10_11_0_0
   - flow_10_13_0_0 - flow_10_15_0_0 + flow_11_10_0_0 + flow_13_10_0_0
   + flow_15_10_0_0 = 1
 one_parent_11: edge_0_11_0_0 + edge_2_11_0_0 + edge_4_11_0_0
   + edge_7_11_0_0 + edge_8_11_0_0 + edge_9_11_0_0 + edge_10_11_0_0
   + edge_13_11_0_0 + edge_15_11_0_0 = 1
 consume_one_flow_unit_11: flow_0_11_0_0 + flow_2_11_0_0 + flow_4_11_0_0
   + flow_7_11_0_0 + flow_8_11_0_0 + flow_9_11_0_0 + flow_10_11_0_0
   - flow_11_1_0_0 - flow_11_2_0_0 - flow_11_3_0_0 - flow_11_4_0_0
   - flow_11_5_0_0 - flow_11_6_0_0 - flow_11_7_0_0 - flow_11_8_0_0
   - flow_11_9_0_0 - flow_11_10_0_0 - flow_11_13_0_0 - flow_11_15_0_0
   - flow_11_16_0_0 + flow_13_11_0_0 + flow_15_11_0_0 = 1
 one_parent_12: = 1
 consume_one_flow_unit_12: = 1
 one_parent_13: edge_2_13_0_0 + edge_6_13_0_0 + edge_7_13_0_0
   + edge_8_13_0_0 + edge_9_13_0_0 + edge_10_13_0_0 + edge_11_13_0_0
   + edge_15_13_0_0 + edge_16_13_0_0 = 1
 consume_one_flow_unit_13: flow_2_13_0_0 + flow_6_13_0_0 + flow_7_13_0_0
   + flow_8_13_0_0 + flow_9_13_0_0 + flow_10_13_0_0 + flow_11_13_0_0
   - flow_13_10_0_0 - flow_13_11_0_0 - flow_13_15_0_0 - flow_13_16_0_0
   + flow_15_13_0_0 + flow_16_13_0_0 = 1
 one_parent_14: = 1
 consume_one_flow_unit_14: = 1
 one_parent_15: edge_0_15_0_0 + edge_2_15_0_0 + edge_6_15_0_0
   + edge_7_15_0_0 + edge_8_15_0_0 + edge_9_15_0_0 + edge_10_15_0_0
   + edge_11_15_0_0 + edge_13_15_0_0 + edge_16_15_0_0 = 1
 consume_one_flow_unit_15: flow_0_15_0_0 + flow_2_15_0_0 + flow_6_15_0_0
   + flow_7_15_0_0 + flow_8_15_0_0 + flow_9_15_0_0 + flow_10_15_0_0
   + flow_11_15_0_0 + flow_13_15_0_0 - flow_15_8_0_0 - flow_15_10_0_0
   - flow_15_11_0_0 - flow_15_13_0_0 - flow_15_16_0_0 + flow_16_15_0_0 = 1
 one_parent_16: edge_2_16_0_0 + edge_3_16_0_0 + edge_4_16_0_0
   + edge_6_16_0_0 + edge_7_16_0_0 + edge_8_16_0_0 + edge_9_16_0_0
   + edge_11_16_0_0 + edge_13_16_0_0 + edge_15_16_0_0 = 1
 consume_one_flow_unit_16: flow_2_16_0_0 + flow_3_16_0_0 + flow_4_16_0_0
   + flow_6_16_0_0 + flow_7_16_0_0 + flow_8_16_0_0 + flow_9_16_0_0
   + flow_11_16_0_0 + flow_13_16_0_0 + flow_15_16_0_0 - flow_16_13_0_0
   - flow_16_15_0_0 = 1
 root_flow: flow_0_1_0_0 + flow_0_2_0_0 + flow_0_3_0_0 + flow_0_4_0_0
   + flow_0_5_0_0 + flow_0_6_0_0 + flow_0_7_0_0 + flow_0_8_0_0
   + flow_0_9_0_0 + flow_0_11_0_0 + flow_0_15_0_0 = 16
 inactive_no_flow_0_1_0_0: flow_0_1_0_0 - 1000 edge_0_1_0_0 <= 0
 inactive_no_flow_0_2_0_0: flow_0_2_0_0 - 1000 edge_0_2_0_0 <= 0
 inactive_no_flow_0_3_0_0: flow_0_3_0_0 - 1000 edge_0_3_0_0 <= 0
 inactive_no_flow_0_4_0_0: flow_0_4_0_0 - 1000 edge_0_4_0_0 <= 0
 inactive_no_flow_0_5_0_0: flow_0_5_0_0 - 1000 edge_0_5_0_0 <= 0
 inactive_no_flow_0_6_0_0: flow_0_6_0_0 - 1000 edge_0_6_0_0 <= 0
 inactive_no_flow_0_7_0_0: flow_0_7_0_0 - 1000 edge_0_7_0_0 <= 0
 inactive_no_flow_0_8_0_0: flow_0_8_0_0 - 1000 edge_0_8_0_0 <= 0
 inactive_no_flow_0_9_0_0: flow_0_9_0_0 - 1000 edge_0_9_0_0 <= 0
 inactive_no_flow_0_11_0_0: flow_0_11_0_0 - 1000 edge_0_11_0_0 <= 0
 inactive_no_flow_0_15_0_0: flow_0_15_0_0 - 1000 edge_0_15_0_0 <= 0
 inactive_no_flow_1_2_0_0: flow_1_2_0_0 - 1000 edge_1_2_0_0 <= 0
 inactive_no_flow_1_3_0_0: flow_1_3_0_0 - 1000 edge_1_3_0_0 <= 0
 inactive_no_flow_1_4_0_0: flow_1_4_0_0 - 1000 edge_1_4_0_0 <= 0
 inactive_no_flow_1_5_0_0: flow_1_5_0_0 - 1000 edge_1_5_0_0 <= 0
 inactive_no_flow_1_9_0_0: flow_1_9_0_0 - 1000 edge_1_9_0_0 <= 0
 inactive_no_flow_2_1_0_0: flow_2_1_0_0 - 1000 edge_2_1_0_0 <= 0
 inactive_no_flow_2_3_0_0: flow_2_3_0_0 - 1000 edge_2_3_0_0 <= 0
 inactive_no_flow_2_4_0_0: flow_2_4_0_0 - 1000 edge_2_4_0_0 <= 0
 inactive_no_flow_2_5_0_0: flow_2_5_0_0 - 1000 edge_2_5_0_0 <= 0
 inactive_no_flow_2_6_0_0: flow_2_6_0_0 - 1000 edge_2_6_0_0 <= 0
 inactive_no_flow_2_7_0_0: flow_2_7_0_0 - 1000 edge_2_7_0_0 <= 0
 inactive_no_flow_2_8_0_0: flow_2_8_0_0 - 1000 edge_2_8_0_0 <= 0
 inactive_no_flow_2_9_0_0: flow_2_9_0_0 - 1000 edge_2_9_0_0 <= 0
 inactive_no_flow_2_10_0_0: flow_2_10_0_0 - 1000 edge_2_10_0_0 <= 0
 inactive_no_flow_2_11_0_0: flow_2_11_0_0 - 1000 edge_2_11_0_0 <= 0
 inactive_no_flow_2_13_0_0: flow_2_13_0_0 - 1000 edge_2_13_0_0 <= 0
 inactive_no_flow_2_15_0_0: flow_2_15_0_0 - 1000 edge_2_15_0_0 <= 0
 inactive_no_flow_2_16_0_0: flow_2_16_0_0 - 1000 edge_2_16_0_0 <= 0
 inactive_no_flow_3_1_0_0: flow_3_1_0_0 - 1000 edge_3_1_0_0 <= 0
 inactive_no_flow_3_2_0_0: flow_3_2_0_0 - 1000 edge_3_2_0_0 <= 0
 inactive_no_flow_3_5_0_0: flow_3_5_0_0 - 1000 edge_3_5_0_0 <= 0
 inactive_no_flow_3_7_0_0: flow_3_7_0_0 - 1000 edge_3_7_0_0 <= 0
 inactive_no_flow_3_9_0_0: flow_3_9_0_0 - 1000 edge_3_9_0_0 <= 0
 inactive_no_flow_3_16_0_0: flow_3_16_0_0 - 1000 edge_3_16_0_0 <= 0
 inactive_no_flow_4_1_0_0: flow_4_1_0_0 - 1000 edge_4_1_0_0 <= 0
 inactive_no_flow_4_2_0_0: flow_4_2_0_0 - 1000 edge_4_2_0_0 <= 0
 inactive_no_flow_4_3_0_0: flow_4_3_0_0 - 1000 edge_4_3_0_0 <= 0
 inactive_no_flow_4_5_0_0: flow_4_5_0_0 - 1000 edge_4_5_0_0 <= 0
 inactive_no_flow_4_6_0_0: flow_4_6_0_0 - 1000 edge_4_6_0_0 <= 0
 inactive_no_flow_4_7_0_0: flow_4_7_0_0 - 1000 edge_4_7_0_0 <= 0
 inactive_no_flow_4_8_0_0: flow_4_8_0_0 - 1000 edge_4_8_0_0 <= 0
 inactive_no_flow_4_9_0_0: flow_4_9_0_0 - 1000 edge_4_9_0_0 <= 0
 inactive_no_flow_4_10_0_0: flow_4_10_0_0 - 1000 edge_4_10_0_0 <= 0
 inactive_no_flow_4_11_0_0: flow_4_11_0_0 - 1000 edge_4_11_0_0 <= 0
 inactive_no_flow_4_16_0_0: flow_4_16_0_0 - 1000 edge_4_16_0_0 <= 0
 inactive_no_flow_5_1_0_0: flow_5_1_0_0 - 1000 edge_5_1_0_0 <= 0
 inactive_no_flow_5_2_0_0: flow_5_2_0_0 - 1000 edge_5_2_0_0 <= 0
 inactive_no_flow_5_3_0_0: flow_5_3_0_0 - 1000 edge_5_3_0_0 <= 0
 inactive_no_flow_5_4_0_0: flow_5_4_0_0 - 1000 edge_5_4_0_0 <= 0
 inactive_no_flow_5_6_0_0: flow_5_6_0_0 - 1000 edge_5_6_0_0 <= 0
 inactive_no_flow_6_1_0_0: flow_6_1_0_0 - 1000 edge_6_1_0_0 <= 0
 inactive_no_flow_6_2_0_0: flow_6_2_0_0 - 1000 edge_6_2_0_0 <= 0
 inactive_no_flow_6_3_0_0: flow_6_3_0_0 - 1000 edge_6_3_0_0 <= 0
 inactive_no_flow_6_4_0_0: flow_6_4_0_0 - 1000 edge_6_4_0_0 <= 0
 inactive_no_flow_6_5_0_0: flow_6_5_0_0 - 1000 edge_6_5_0_0 <= 0
 inactive_no_flow_6_7_0_0: flow_6_7_0_0 - 1000 edge_6_7_0_0 <= 0
 inactive_no_flow_6_8_0_0: flow_6_8_0_0 - 1000 edge_6_8_0_0 <= 0
 inactive_no_flow_6_9_0_0: flow_6_9_0_0 - 1000 edge_6_9_0_0 <= 0
 inactive_no_flow_6_10_0_0: flow_6_10_0_0 - 1000 edge_6_10_0_0 <= 0
 inactive_no_flow_6_13_0_0: flow_6_13_0_0 - 1000 edge_6_13_0_0 <= 0
 inactive_no_flow_6_15_0_0: flow_6_15_0_0 - 1000 edge_6_15_0_0 <= 0
 inactive_no_flow_6_16_0_0: flow_6_16_0_0 - 1000 edge_6_16_0_0 <= 0
 inactive_no_flow_7_1_0_0: flow_7_1_0_0 - 1000 edge_7_1_0_0 <= 0
 inactive_no_flow_7_2_0_0: flow_7_2_0_0 - 1000 edge_7_2_0_0 <= 0
 inactive_no_flow_7_3_0_0: flow_7_3_0_0 - 1000 edge_7_3_0_0 <= 0
 inactive_no_flow_7_4_0_0: flow_7_4_0_0 - 1000 edge_7_4_0_0 <= 0
 inactive_no_flow_7_5_0_0: flow_7_5_0_0 - 1000 edge_7_5_0_0 <= 0
 inactive_no_flow_7_6_0_0: flow_7_6_0_0 - 1000 edge_7_6_0_0 <= 0
 inactive_no_flow_7_8_0_0: flow_7_8_0_0 - 1000 edge_7_8_0_0 <= 0
 inactive_no_flow_7_9_0_0: flow_7_9_0_0 - 1000 edge_7_9_0_0 <= 0
 inactive_no_flow_7_10_0_0: flow_7_10_0_0 - 1000 edge_7_10_0_0 <= 0
 inactive_no_flow_7_11_0_0: flow_7_11_0_0 - 1000 edge_7_11_0_0 <= 0
 inactive_no_flow_7_13_0_0: flow_7_13_0_0 - 1000 edge_7_13_0_0 <= 0
 inactive_no_flow_7_15_0_0: flow_7_15_0_0 - 1000 edge_7_15_0_0 <= 0
 inactive_no_flow_7_16_0_0: flow_7_16_0_0 - 1000 edge_7_16_0_0 <= 0
 inactive_no_flow_8_1_0_0: flow_8_1_0_0 - 1000 edge_8_1_0_0 <= 0
 inactive_no_flow_8_2_0_0: flow_8_2_0_0 - 1000 edge_8_2_0_0 <= 0
 inactive_no_flow_8_4_0_0: flow_8_4_0_0 - 1000 edge_8_4_0_0 <= 0
 inactive_no_flow_8_6_0_0: flow_8_6_0_0 - 1000 edge_8_6_0_0 <= 0
 inactive_no_flow_8_7_0_0: flow_8_7_0_0 - 1000 edge_8_7_0_0 <= 0
 inactive_no_flow_8_9_0_0: flow_8_9_0_0 - 1000 edge_8_9_0_0 <= 0
 inactive_no_flow_8_10_0_0: flow_8_10_0_0 - 1000 edge_8_10_0_0 <= 0
 inactive_no_flow_8_11_0_0: flow_8_11_0_0 - 1000 edge_8_11_0_0 <= 0
 inactive_no_flow_8_13_0_0: flow_8_13_0_0 - 1000 edge_8_13_0_0 <= 0
 inactive_no_flow_8_15_0_0: flow_8_15_0_0 - 1000 edge_8_15_0_0 <= 0
 inactive_no_flow_8_16_0_0: flow_8_16_0_0 - 1000 edge_8_16_0_0 <= 0
 inactive_no_flow_9_1_0_0: flow_9_1_0_0 - 1000 edge_9_1_0_0 <= 0
 inactive_no_flow_9_2_0_0: flow_9_2_0_0 - 1000 edge_9_2_0_0 <= 0
 inactive_no_flow_9_3_0_0: flow_9_3_0_0 - 1000 edge_9_3_0_0 <= 0
 inactive_no_flow_9_4_0_0: flow_9_4_0_0 - 1000 edge_9_4_0_0 <= 0
 inactive_no_flow_9_5_0_0: flow_9_5_0_0 - 1000 edge_9_5_0_0 <= 0
 inactive_no_flow_9_6_0_0: flow_9_6_0_0 - 1000 edge_9_6_0_0 <= 0
 inactive_no_flow_9_7_0_0: flow_9_7_0_0 - 1000 edge_9_7_0_0 <= 0
 inactive_no_flow_9_8_0_0: flow_9_8_0_0 - 1000 edge_9_8_0_0 <= 0
 inactive_no_flow_9_10_0_0: flow_9_10_0_0 - 1000 edge_9_10_0_0 <= 0
 inactive_no_flow_9_11_0_0: flow_9_11_0_0 - 1000 edge_9_11_0_0 <= 0
 inactive_no_flow_9_13_0_0: flow_9_13_0_0 - 1000 edge_9_13_0_0 <= 0
 inactive_no_flow_9_15_0_0: flow_9_15_0_0 - 1000 edge_9_15_0_0 <= 0
 inactive_no_flow_9_16_0_0: flow_9_16_0_0 - 1000 edge_9_16_0_0 <= 0
 inactive_no_flow_10_11_0_0: flow_10_11_0_0 - 1000 edge_10_11_0_0 <= 0
 inactive_no_flow_10_13_0_0: flow_10_13_0_0 - 1000 edge_10_13_0_0 <= 0
 inactive_no_flow_10_15_0_0: flow_10_15_0_0 - 1000 edge_10_15_0_0 <= 0
 inactive_no_flow_11_1_0_0: flow_11_1_0_0 - 1000 edge_11_1_0_0 <= 0
 inactive_no_flow_11_2_0_0: flow_11_2_0_0 - 1000 edge_11_2_0_0 <= 0
 inactive_no_flow_11_3_0_0: flow_11_3_0_0 - 1000 edge_11_3_0_0 <= 0
 inactive_no_flow_11_4_0_0: flow_11_4_0_0 - 1000 edge_11_4_0_0 <= 0
 inactive_no_flow_11_5_0_0: flow_11_5_0_0 - 1000 edge_11_5_0_0 <= 0
 inactive_no_flow_11_6_0_0: flow_11_6_0_0 - 1000 edge_11_6_0_0 <= 0
 inactive_no_flow_11_7_0_0: flow_11_7_0_0 - 1000 edge_11_7_0_0 <= 0
 inactive_no_flow_11_8_0_0: flow_11_8_0_0 - 1000 edge_11_8_0_0 <= 0
 inactive_no_flow_11_9_0_0: flow_11_9_0_0 - 1000 edge_11_9_0_0 <= 0
 inactive_no_flow_11_10_0_0: flow_11_10_0_0 - 1000 edge_11_10_0_0 <= 0
 inactive_no_flow_11_13_0_0: flow_11_13_0_0 - 1000 edge_11_13_0_0 <= 0
 inactive_no_flow_11_15_0_0: flow_11_15_0_0 - 1000 edge_11_15_0_0 <= 0
 inactive_no_flow_11_16_0_0: flow_11_16_0_0 - 1000 edge_11_16_0_0 <= 0
 inactive_no_flow_13_10_0_0: flow_13_10_0_0 - 1000 edge_13_10_0_0 <= 0
 inactive_no_flow_13_11_0_0: flow_13_11_0_0 - 1000 edge_13_11_0_0 <= 0
 inactive_no_flow_13_15_0_0: flow_13_15_0_0 - 1000 edge_13_15_0_0 <= 0
 inactive_no_flow_13_16_0_0: flow_13_16_0_0 - 1000 edge_13_16_0_0 <= 0
 inactive_no_flow_15_8_0_0: flow_15_8_0_0 - 1000 edge_15_8_0_0 <= 0
 inactive_no_flow_15_10_0_0: flow_15_10_0_0 - 1000 edge_15_10_0_0 <= 0
 inactive_no_flow_15_11_0_0: flow_15_11_0_0 - 1000 edge_15_11_0_0 <= 0
 inactive_no_flow_15_13_0_0: flow_15_13_0_0 - 1000 edge_15_13_0_0 <= 0
 inactive_no_flow_15_16_0_0: flow_15_16_0_0 - 1000 edge_15_16_0_0 <= 0
 inactive_no_flow_16_13_0_0: flow_16_13_0_0 - 1000 edge_16_13_0_0 <= 0
 inactive_no_flow_16_15_0_0: flow_16_15_0_0 - 1000 edge_16_15_0_0 <= 0
Bounds
Binaries
 edge_0_1_0_0 edge_0_2_0_0 edge_0_3_0_0 edge_0_4_0_0 edge_0_5_0_0
 edge_0_6_0_0 edge_0_7_0_0 edge_0_8_0_0 edge_0_9_0_0 edge_0_11_0_0
 edge_0_15_0_0 edge_1_2_0_0 edge_1_3_0_0 edge_1_4_0_0 edge_1_5_0_0
 edge_1_9_0_0 edge_2_1_0_0 edge_2_3_0_0 edge_2_4_0_0 edge_2_5_0_0
 edge_2_6_0_0 edge_2_7_0_0 edge_2_8_0_0 edge_2_9_0_0 edge_2_10_0_0
 edge_2_11_0_0 edge_2_13_0_0 edge_2_15_0_0 edge_2_16_0_0 edge_3_1_0_0
 edge_3_2_0_0 edge_3_5_0_0 edge_3_7_0_0 edge_3_9_0_0 edge_3_16_0_0
 edge_4_1_0_0 edge_4_2_0_0 edge_4_3_0_0 edge_4_5_0_0 edge_4_6_0_0
 edge_4_7_0_0 edge_4_8_0_0 edge_4_9_0_0 edge_4_10_0_0 edge_4_11_0_0
 edge_4_16_0_0 edge_5_1_0_0 edge_5_2_0_0 edge_5_3_0_0 edge_5_4_0_0
 edge_5_6_0_0 edge_6_1_0_0 edge_6_2_0_0 edge_6_3_0_0 edge_6_4_0_0
 edge_6_5_0_0 edge_6_7_0_0 edge_6_8_0_0 edge_6_9_0_0 edge_6_10_0_0
 edge_6_13_0_0 edge_6_15_0_0 edge_6_16_0_0 edge_7_1_0_0 edge_7_2_0_0
 edge_7_3_0_0 edge_7_4_0_0 edge_7_5_0_0 edge_7_6_0_0 edge_7_8_0_0
 edge_7_9_0_0 edge_7_10_0_0 edge_7_11_0_0 edge_7_13_0_0 edge_7_15_0_0
 edge_7_16_0_0 edge_8_1_0_0 edge_8_2_0_0 edge_8_4_0_0 edge_8_6_0_0
 edge_8_7_0_0 edge_8_9_0_0 edge_8_10_0_0 edge_8_11_0_0 edge_8_13_0_0
 edge_8_15_0_0 edge_8_16_0_0 edge_9_1_0_0 edge_9_2_0_0 edge_9_3_0_0
 edge_9_4_0_0 edge_9_5_0_0 edge_9_6_0_0 edge_9_7_0_0 edge_9_8_0_0
 edge_9_10_0_0 edge_9_11_0_0 edge_9_13_0_0 edge_9_15_0_0 edge_9_16_0_0
 edge_10_11_0_0 edge_10_13_0_0 edge_10_15_0_0 edge_11_1_0_0 edge_11_2_0_0
 edge_11_3_0_0 edge_11_4_0_0 edge_11_5_0_0 edge_11_6_0_0 edge_11_7_0_0
 edge_11_8_0_0 edge_11_9_0_0 edge_11_10_0_0 edge_11_13_0_0 edge_11_15_0_0
 edge_11_16_0_0 edge_13_10_0_0 edge_13_11_0_0 edge_13_15_0_0 edge_13_16_0_0
 edge_15_8_0_0 edge_15_10_0_0 edge_15_11_0_0 edge_15_13_0_0 edge_15_16_0_0
 edge_16_13_0_0 edge_16_15_0_0
End
